Problem:    
Rows:       41
Columns:    44
Non-zeros:  110
Status:     OPTIMAL
Objective:  obj = 3.75 (MAXimum)

   No.   Row name   St   Activity     Lower bound   Upper bound    Marginal
------ ------------ -- ------------- ------------- ------------- -------------
     1 r.4          NU             0                           0          0.25 
     2 r.5          NU             0                           0         < eps
     3 r.6          NS             0             0             =          0.25 
     4 r.7          NU             0                           0         < eps
     5 r.8          NU             0                           0         < eps
     6 r.9          NU             0                           0          0.75 
     7 r.10         NU             0                           0         < eps
     8 r.11         NU             0                           0          0.75 
     9 r.12         B             -1                           0 
    10 r.13         B             -1                           0 
    11 r.14         B             -2                           0 
    12 r.15         NU             0                           0          0.25 
    13 r.16         B              0                           0 
    14 r.17         B             -2                           0 
    15 r.18         NU             0                           0          0.25 
    16 r.19         NU             0                           0         < eps
    17 r.20         B              0                           0 
    18 r.21         B             -2                           0 
    19 r.22         NU             0                           0          0.25 
    20 r.23         NU             0                           0          0.75 
    21 r.24         NU             0                           0          0.25 
    22 r.25         NU             0                           0          0.25 
    23 r.26         B              0                           0 
    24 r.27         NS             0             0             =          0.75 
    25 r.28         B             -2                           0 
    26 r.29         B              0                           0 
    27 r.30         NU             0                           0         < eps
    28 r.31         NU             0                           0          0.75 
    29 r.32         NU             0                           0          0.25 
    30 r.33         NU             0                           0         < eps
    31 r.34         B              0                           0 
    32 r.35         B             -2                           0 
    33 r.36         NS             1             1             =          0.75 
    34 r.37         NS             1             1             =         < eps
    35 r.38         NS             1             1             =         < eps
    36 r.39         NS             1             1             =          0.25 
    37 r.40         NS             1             1             =          0.25 
    38 r.41         NS             1             1             =          0.25 
    39 r.42         NS             1             1             =          0.75 
    40 r.43         NS             1             1             =          0.75 
    41 r.44         NS             1             1             =          0.75 

   No. Column name  St   Activity     Lower bound   Upper bound    Marginal
------ ------------ -- ------------- ------------- ------------- -------------
     1 V(0,1)       B              3                             
     2 V(0,2)       B              4                             
     3 V(5,1)       B              3                             
     4 F(5,1)       B              1             0               
     5 F(5,2)       NL             0             0                       -0.25 
     6 V(4,1)       B              2                             
     7 V(5,2)       B              2                             
     8 V(4,2)       B              2                             
     9 V(1,1)       B              0                             
    10 V(1,2)       B              2                             
    11 F(1,1)       B              1             0               
    12 F(1,2)       NL             0             0                       < eps
    13 V(3,2)       B              2                             
    14 V(6,1)       B              3                             
    15 F(6,1)       NL             0             0                        -0.5 
    16 F(6,2)       B              1             0               
    17 V(7,1)       B              3                             
    18 V(6,2)       B              3                             
    19 V(7,2)       B              2                             
    20 V(8,1)       B              3                             
    21 F(8,1)       NL             0             0                       -0.75 
    22 F(8,2)       B              1             0               
    23 V(2,1)       B              3                             
    24 V(8,2)       B              1                             
    25 V(2,2)       B              0                             
    26 V(3,1)       B              1                             
    27 F(3,1)       B              1             0               
    28 F(3,2)       B              0             0               
    29 F(7,1)       NL             0             0                       -0.75 
    30 F(7,2)       B              1             0               
    31 F(0,1)       NL             0             0                        -0.5 
    32 F(0,2)       B              1             0               
    33 F(4,1)       B              1             0               
    34 F(4,2)       B              0             0               
    35 F(2,1)       NL             0             0                       < eps
    36 F(2,2)       B              1             0               
    37 F(S0T2,1)    NL             0             0                       < eps
    38 F(S0T0,1)    NL             0             0                       < eps
    39 F(S0T3,2)    NL             0             0                       < eps
    40 F(S0T1,1)    NL             0             0                       < eps
    41 F(S0T2,2)    NL             0             0                       < eps
    42 F(S0T0,2)    NL             0             0                       < eps
    43 F(S0T3,1)    NL             0             0                       < eps
    44 F(S0T1,2)    NL             0             0                       < eps

Karush-Kuhn-Tucker optimality conditions:

KKT.PE: max.abs.err = 0.00e+00 on row 0
        max.rel.err = 0.00e+00 on row 0
        High quality

KKT.PB: max.abs.err = 0.00e+00 on row 0
        max.rel.err = 0.00e+00 on row 0
        High quality

KKT.DE: max.abs.err = 0.00e+00 on column 0
        max.rel.err = 0.00e+00 on column 0
        High quality

KKT.DB: max.abs.err = 0.00e+00 on row 0
        max.rel.err = 0.00e+00 on row 0
        High quality

End of output
